*NODE,NSET=ALLN
1,0,0,0
2,1,0,0
3,1,1,0
4,0,1,0
5,0,0,1
6,1,0,1
7,1,1,1
8,0,1,1
*ELEMENT,TYPE=C3D8,ELSET=E1
1,1,2,3,4,5,6,7,8
*NSET,NSET=X0
1,4,5,8
*NSET,NSET=Y0
1,2,5,6
*NSET,NSET=Z0
1,2,3,4
*MATERIAL,NAME=ABAQUSNL_BIO
*USER MATERIAL,CONSTANTS=5
0.2E-3,0.0,5.0E3,0.0,0.0
*DEPVAR
9
*SOLID SECTION,ELSET=E1,MATERIAL=ABAQUSNL_BIO
*INITIAL CONDITIONS,TYPE=TEMPERATURE
ALLN,0.0
*STEP,NLGEOM,INC=100
*STATIC
0.25,1.0
*BOUNDARY
X0,1,1,0.
Y0,2,2,0.
Z0,3,3,0.
*TEMPERATURE
ALLN,0.05
*NODE PRINT,NSET=ALLN
U
*EL PRINT,ELSET=E1
S,SDV
*END STEP
